Please solve the following SAT Problem encoded in DIMACS format, provide line of thoughts, write your final answer as a single solution at the end of response with header 'answer: ' : 
p cnf 10 40
3 -8 4 0
-1 -8 -2 0
-9 -2 -1 0
5 -2 7 0
-9 -6 10 0
8 -10 5 0
5 4 -6 0
9 5 3 0
-7 -6 3 0
-6 -7 -2 0
-2 -9 1 0
8 -9 -2 0
3 -2 10 0
-6 4 -8 0
10 -1 5 0
-5 3 -9 0
-9 -1 5 0
3 -8 5 0
-7 -2 -10 0
3 -2 -1 0
5 -6 -7 0
-6 5 1 0
-2 -7 5 0
3 -8 4 0
-7 -8 9 0
-7 4 10 0
1 5 2 0
-9 5 1 0
-8 5 10 0
8 -9 10 0
-6 5 10 0
3 9 10 0
-6 1 5 0
1 -7 5 0
1 10 4 0
-7 -1 -9 0
-7 10 -6 0
3 10 1 0
-1 4 -2 0
-2 5 -8 0

